
Gurobi 10.0.3 (linux64, gurobi_cl) logging started Thu Nov  2 11:33:57 2023

Set parameter Username
Set parameter TimeLimit to value 3600
Set parameter LogFile to value "RCPSP_257.log"
Set parameter Threads to value 32
Academic license - for non-commercial use only - expires 2024-10-30
Using license file /home/jrivera6/gurobi-licenses/v1003/compute-0-39/gurobi.lic

Gurobi Optimizer version 10.0.3 build v10.0.3rc0 (linux64)
Copyright (c) 2023, Gurobi Optimization, LLC

Read MPS format model from file RCPSP_257.mps
Reading time = 0.01 seconds
RCPSP_257: 5339 rows, 2080 columns, 17984 nonzeros

CPU model: Intel(R) Xeon(R) Gold 6242 CPU @ 2.80GHz, instruction set [SSE2|AVX|AVX2|AVX512]
Thread count: 32 physical cores, 32 logical processors, using up to 32 threads

Optimize a model with 5339 rows, 2080 columns and 17984 nonzeros
Model fingerprint: 0x05a394ec
Variable types: 32 continuous, 2048 integer (2048 binary)
Coefficient statistics:
  Matrix range     [1e+00, 2e+02]
  Objective range  [1e+00, 1e+00]
  Bounds range     [1e+00, 1e+00]
  RHS range        [1e+00, 2e+02]
Presolve removed 2939 rows and 1138 columns
Presolve time: 0.21s
Presolved: 2400 rows, 942 columns, 8194 nonzeros
Variable types: 31 continuous, 911 integer (911 binary)

Root relaxation: objective 5.600000e+01, 358 iterations, 0.00 seconds (0.00 work units)

    Nodes    |    Current Node    |     Objective Bounds      |     Work
 Expl Unexpl |  Obj  Depth IntInf | Incumbent    BestBd   Gap | It/Node Time

     0     0   56.00000    0   30          -   56.00000      -     -    0s
H    0     0                      60.0000000   56.00000  6.67%     -    0s
     0     0   56.00000    0   85   60.00000   56.00000  6.67%     -    0s
     0     0   56.00000    0   83   60.00000   56.00000  6.67%     -    0s
H    0     0                      56.0000000   56.00000  0.00%     -    0s
     0     0   56.00000    0    2   56.00000   56.00000  0.00%     -    0s

Cutting planes:
  Gomory: 45
  Cover: 46
  Implied bound: 47
  Clique: 37
  MIR: 99
  StrongCG: 4
  RLT: 45
  Relax-and-lift: 17

Explored 1 nodes (1901 simplex iterations) in 0.78 seconds (0.30 work units)
Thread count was 32 (of 32 available processors)

Solution count 2: 56 60 

Optimal solution found (tolerance 1.00e-04)
Best objective 5.600000000000e+01, best bound 5.600000000000e+01, gap 0.0000%

Wrote result file 'RCPSP_257.sol'

